(set-option :produce-proofs true)
(set-logic AUFLIA)
(declare-fun P ( Int) Bool)
(declare-fun Q ( Int) Bool)
(assert (! (=> (exists ((x Int)) (P x)) (Q 3)) :named IP_0))
(assert (! (and (P 3) (not (Q 3))) :named IP_1))
(check-sat)
(get-interpolants IP_0 IP_1)
(exit)
